data/solutions/recovery/degenerate/moderate/flexible/degenerate_moderate_instance36/22.sol
Elapsed time: 0.86
Upper bound: 1410138312.0
Planning weighted value: 47105754908.0
C[0]=1410138312.0
C[1]=1410029103.0
C[2]=1409973507.0
C[3]=1409862092.0
C[4]=0.0
y[0]=0
y[1]=3
y[2]=3
y[3]=3
y[4]=0
y[5]=2
y[6]=2
y[7]=0
y[8]=1
y[9]=2
y[10]=1
y[11]=3
y[12]=2
y[13]=2
y[14]=2
y[15]=0
y[16]=0
y[17]=1
y[18]=0
y[19]=2
y[20]=3
y[21]=2
y[22]=3
y[23]=1
y[24]=3
y[25]=1
y[26]=1
y[27]=3
y[28]=3
y[29]=0
y[30]=3
y[31]=1
y[32]=2
y[33]=2
y[34]=3
y[35]=1
y[36]=3
y[37]=2
y[38]=3
y[39]=1
y[40]=2
y[41]=1
y[42]=0
y[43]=2
y[44]=3
y[45]=1
